p cnf 12 50 
-9 11 -1 0
8 -11 -9 0
-10 -2 4 0
-4 10 -7 0
1 -10 -5 0
-8 -12 2 0
-8 9 -4 0
-11 -12 -9 0
6 12 3 0
-5 -8 -7 0
-9 -4 -2 0
-9 12 -7 0
2 -8 5 0
7 -6 -2 0
-9 4 -11 0
-12 -8 -10 0
-2 -11 12 0
3 7 -10 0
6 -9 -10 0
-10 -1 -12 0
-5 12 -11 0
-10 5 8 0
-8 -1 3 0
3 9 5 0
9 7 -6 0
-1 6 11 0
4 -10 -5 0
11 -4 9 0
-9 -6 4 0
-3 12 5 0
-3 -9 10 0
8 4 5 0
3 -9 1 0
-10 11 -2 0
-12 5 -2 0
-9 1 10 0
4 10 8 0
-3 1 -12 0
-10 -9 -12 0
10 5 8 0
-3 11 -1 0
-6 8 12 0
-3 -1 -10 0
-11 -2 -3 0
6 11 8 0
-8 -4 -10 0
7 11 -12 0
-11 9 -1 0
9 7 5 0
11 -7 -3 0
